letting x be 5
letting y be 5

letting treecount be 7

letting colsums be [2,1,1,-1,1]
letting rowsums be [2,0,2,0,3]

letting trees be 
[
    [0,0,0,0,1],
    [4,0,0,0,0],
    [3,0,2,0,0],
    [5,0,0,0,7],
    [0,0,0,6,0]
]